c FILE: i160-142

c SOURCE: From steinlib

c DESCRIPTION: Steinlib instance with 160 nodes and 2544 edges.

p edge 160 2544
e 1 5
e 1 18
e 1 30
e 1 36
e 1 47
e 1 48
e 1 52
e 1 57
e 1 70
e 1 71
e 1 82
e 1 86
e 1 87
e 1 93
e 1 96
e 1 105
e 1 106
e 1 109
e 1 113
e 1 116
e 1 119
e 1 121
e 1 122
e 1 124
e 1 125
e 1 133
e 1 137
e 1 149
e 2 3
e 2 4
e 2 5
e 2 6
e 2 13
e 2 18
e 2 22
e 2 28
e 2 32
e 2 34
e 2 41
e 2 43
e 2 49
e 2 51
e 2 52
e 2 57
e 2 67
e 2 71
e 2 72
e 2 77
e 2 79
e 2 80
e 2 83
e 2 87
e 2 92
e 2 100
e 2 108
e 2 112
e 2 115
e 2 134
e 2 143
e 2 156
e 3 4
e 3 9
e 3 24
e 3 25
e 3 26
e 3 27
e 3 34
e 3 36
e 3 37
e 3 53
e 3 56
e 3 59
e 3 63
e 3 64
e 3 70
e 3 71
e 3 73
e 3 77
e 3 79
e 3 80
e 3 90
e 3 97
e 3 100
e 3 101
e 3 110
e 3 111
e 3 114
e 3 115
e 3 118
e 3 124
e 3 131
e 3 137
e 3 141
e 3 148
e 3 153
e 3 159
e 4 5
e 4 6
e 4 8
e 4 9
e 4 14
e 4 18
e 4 22
e 4 23
e 4 33
e 4 51
e 4 57
e 4 58
e 4 60
e 4 68
e 4 84
e 4 89
e 4 105
e 4 106
e 4 113
e 4 115
e 4 122
e 4 127
e 4 128
e 4 131
e 4 142
e 4 144
e 4 150
e 4 159
e 5 6
e 5 12
e 5 13
e 5 17
e 5 21
e 5 22
e 5 24
e 5 29
e 5 32
e 5 37
e 5 46
e 5 50
e 5 55
e 5 60
e 5 67
e 5 69
e 5 70
e 5 73
e 5 86
e 5 87
e 5 91
e 5 93
e 5 94
e 5 98
e 5 105
e 5 109
e 5 111
e 5 123
e 5 125
e 5 128
e 5 129
e 5 130
e 5 132
e 5 134
e 5 135
e 5 142
e 5 144
e 5 152
e 5 153
e 5 160
e 6 7
e 6 11
e 6 13
e 6 16
e 6 22
e 6 37
e 6 48
e 6 57
e 6 58
e 6 62
e 6 67
e 6 71
e 6 76
e 6 78
e 6 80
e 6 81
e 6 91
e 6 93
e 6 100
e 6 101
e 6 102
e 6 104
e 6 106
e 6 124
e 6 125
e 6 134
e 6 140
e 6 151
e 6 154
e 6 155
e 6 157
e 6 159
e 7 11
e 7 12
e 7 18
e 7 21
e 7 23
e 7 29
e 7 31
e 7 42
e 7 47
e 7 53
e 7 58
e 7 61
e 7 62
e 7 75
e 7 77
e 7 84
e 7 86
e 7 87
e 7 90
e 7 91
e 7 95
e 7 104
e 7 111
e 7 112
e 7 113
e 7 124
e 7 129
e 7 134
e 7 135
e 7 145
e 7 147
e 7 149
e 7 151
e 8 16
e 8 20
e 8 21
e 8 22
e 8 38
e 8 39
e 8 53
e 8 56
e 8 67
e 8 75
e 8 82
e 8 87
e 8 90
e 8 99
e 8 112
e 8 116
e 8 118
e 8 123
e 8 130
e 8 135
e 8 136
e 8 144
e 8 147
e 8 150
e 8 154
e 8 158
e 9 12
e 9 13
e 9 23
e 9 29
e 9 32
e 9 36
e 9 39
e 9 40
e 9 42
e 9 44
e 9 47
e 9 49
e 9 56
e 9 57
e 9 58
e 9 62
e 9 67
e 9 69
e 9 70
e 9 72
e 9 79
e 9 85
e 9 90
e 9 93
e 9 101
e 9 107
e 9 108
e 9 113
e 9 115
e 9 120
e 9 124
e 9 131
e 9 138
e 9 140
e 9 148
e 9 150
e 9 151
e 9 157
e 10 11
e 10 15
e 10 16
e 10 19
e 10 20
e 10 21
e 10 25
e 10 29
e 10 30
e 10 33
e 10 36
e 10 44
e 10 47
e 10 48
e 10 52
e 10 55
e 10 61
e 10 67
e 10 68
e 10 78
e 10 82
e 10 90
e 10 91
e 10 96
e 10 98
e 10 102
e 10 107
e 10 132
e 10 133
e 10 134
e 10 142
e 10 146
e 10 159
e 10 160
e 11 18
e 11 20
e 11 24
e 11 30
e 11 37
e 11 38
e 11 44
e 11 45
e 11 50
e 11 56
e 11 59
e 11 63
e 11 74
e 11 83
e 11 94
e 11 95
e 11 104
e 11 108
e 11 112
e 11 115
e 11 128
e 11 129
e 11 133
e 11 138
e 11 140
e 11 144
e 11 149
e 11 154
e 12 15
e 12 17
e 12 27
e 12 28
e 12 33
e 12 34
e 12 37
e 12 41
e 12 45
e 12 48
e 12 50
e 12 52
e 12 60
e 12 64
e 12 72
e 12 73
e 12 77
e 12 78
e 12 81
e 12 83
e 12 85
e 12 97
e 12 99
e 12 102
e 12 103
e 12 104
e 12 105
e 12 109
e 12 112
e 12 116
e 12 118
e 12 119
e 12 125
e 12 128
e 12 133
e 12 134
e 12 142
e 12 146
e 12 148
e 12 151
e 13 20
e 13 21
e 13 29
e 13 33
e 13 36
e 13 43
e 13 46
e 13 59
e 13 63
e 13 64
e 13 90
e 13 109
e 13 111
e 13 125
e 13 143
e 13 150
e 13 152
e 13 154
e 14 24
e 14 36
e 14 43
e 14 46
e 14 56
e 14 61
e 14 62
e 14 66
e 14 67
e 14 74
e 14 77
e 14 89
e 14 90
e 14 91
e 14 92
e 14 94
e 14 96
e 14 105
e 14 109
e 14 117
e 14 122
e 14 126
e 14 129
e 14 132
e 14 139
e 14 140
e 14 147
e 14 153
e 14 154
e 15 16
e 15 25
e 15 27
e 15 31
e 15 32
e 15 35
e 15 37
e 15 38
e 15 41
e 15 46
e 15 47
e 15 48
e 15 51
e 15 60
e 15 62
e 15 66
e 15 71
e 15 72
e 15 79
e 15 80
e 15 86
e 15 87
e 15 90
e 15 93
e 15 107
e 15 108
e 15 115
e 15 117
e 15 126
e 15 127
e 15 128
e 15 132
e 15 145
e 15 152
e 15 154
e 15 155
e 15 157
e 16 17
e 16 36
e 16 37
e 16 45
e 16 72
e 16 75
e 16 79
e 16 81
e 16 85
e 16 92
e 16 96
e 16 109
e 16 113
e 16 121
e 16 137
e 16 142
e 16 145
e 16 155
e 16 157
e 17 20
e 17 24
e 17 33
e 17 37
e 17 39
e 17 40
e 17 52
e 17 53
e 17 69
e 17 77
e 17 79
e 17 81
e 17 84
e 17 87
e 17 89
e 17 93
e 17 105
e 17 113
e 17 116
e 17 119
e 17 121
e 17 122
e 17 126
e 17 127
e 17 132
e 17 145
e 17 155
e 17 157
e 18 22
e 18 23
e 18 33
e 18 39
e 18 40
e 18 46
e 18 52
e 18 53
e 18 54
e 18 65
e 18 66
e 18 71
e 18 76
e 18 80
e 18 82
e 18 85
e 18 87
e 18 98
e 18 99
e 18 101
e 18 109
e 18 124
e 18 128
e 18 129
e 18 130
e 18 141
e 18 143
e 18 148
e 18 155
e 18 158
e 19 27
e 19 38
e 19 42
e 19 43
e 19 51
e 19 53
e 19 56
e 19 62
e 19 69
e 19 74
e 19 94
e 19 97
e 19 99
e 19 100
e 19 102
e 19 104
e 19 107
e 19 113
e 19 117
e 19 118
e 19 122
e 19 123
e 19 124
e 19 125
e 19 127
e 19 131
e 19 139
e 19 141
e 19 142
e 19 143
e 19 145
e 19 153
e 19 155
e 20 26
e 20 27
e 20 32
e 20 33
e 20 39
e 20 43
e 20 49
e 20 51
e 20 52
e 20 55
e 20 65
e 20 70
e 20 74
e 20 76
e 20 88
e 20 93
e 20 99
e 20 102
e 20 103
e 20 104
e 20 105
e 20 106
e 20 107
e 20 122
e 20 128
e 20 134
e 20 137
e 20 138
e 20 143
e 20 144
e 20 149
e 20 151
e 20 155
e 21 24
e 21 26
e 21 28
e 21 30
e 21 35
e 21 36
e 21 43
e 21 48
e 21 49
e 21 52
e 21 53
e 21 55
e 21 56
e 21 58
e 21 60
e 21 62
e 21 66
e 21 74
e 21 83
e 21 84
e 21 89
e 21 94
e 21 99
e 21 101
e 21 106
e 21 110
e 21 111
e 21 112
e 21 119
e 21 120
e 21 126
e 21 128
e 21 151
e 21 152
e 22 27
e 22 42
e 22 43
e 22 44
e 22 46
e 22 47
e 22 49
e 22 52
e 22 55
e 22 57
e 22 66
e 22 70
e 22 73
e 22 74
e 22 78
e 22 81
e 22 85
e 22 90
e 22 98
e 22 110
e 22 118
e 22 119
e 22 122
e 22 129
e 22 140
e 22 143
e 22 146
e 22 151
e 22 156
e 23 25
e 23 27
e 23 28
e 23 33
e 23 38
e 23 46
e 23 57
e 23 58
e 23 60
e 23 63
e 23 70
e 23 72
e 23 80
e 23 93
e 23 96
e 23 103
e 23 107
e 23 110
e 23 112
e 23 120
e 23 124
e 23 129
e 23 134
e 23 137
e 23 142
e 23 144
e 23 148
e 23 151
e 23 154
e 23 157
e 24 27
e 24 28
e 24 36
e 24 40
e 24 43
e 24 46
e 24 48
e 24 49
e 24 54
e 24 55
e 24 63
e 24 64
e 24 69
e 24 70
e 24 72
e 24 73
e 24 79
e 24 87
e 24 103
e 24 111
e 24 116
e 24 123
e 24 133
e 24 140
e 24 141
e 24 147
e 24 151
e 24 155
e 24 156
e 24 158
e 25 32
e 25 39
e 25 43
e 25 49
e 25 65
e 25 66
e 25 68
e 25 69
e 25 73
e 25 74
e 25 76
e 25 80
e 25 89
e 25 93
e 25 96
e 25 100
e 25 102
e 25 104
e 25 107
e 25 114
e 25 117
e 25 119
e 25 121
e 25 136
e 25 150
e 25 155
e 26 45
e 26 52
e 26 66
e 26 70
e 26 74
e 26 84
e 26 93
e 26 94
e 26 97
e 26 104
e 26 105
e 26 114
e 26 117
e 26 119
e 26 127
e 26 140
e 26 144
e 26 152
e 27 29
e 27 35
e 27 46
e 27 47
e 27 54
e 27 72
e 27 74
e 27 80
e 27 82
e 27 102
e 27 103
e 27 107
e 27 110
e 27 112
e 27 120
e 27 122
e 27 139
e 27 145
e 27 146
e 27 147
e 27 151
e 27 155
e 27 158
e 28 29
e 28 30
e 28 35
e 28 38
e 28 47
e 28 48
e 28 58
e 28 68
e 28 77
e 28 78
e 28 82
e 28 93
e 28 101
e 28 105
e 28 107
e 28 119
e 28 130
e 28 135
e 28 139
e 28 140
e 28 147
e 29 30
e 29 31
e 29 38
e 29 39
e 29 46
e 29 49
e 29 50
e 29 53
e 29 54
e 29 59
e 29 68
e 29 71
e 29 81
e 29 84
e 29 86
e 29 97
e 29 116
e 29 117
e 29 118
e 29 125
e 29 139
e 29 155
e 29 157
e 30 32
e 30 33
e 30 37
e 30 42
e 30 48
e 30 51
e 30 52
e 30 53
e 30 61
e 30 62
e 30 63
e 30 74
e 30 76
e 30 79
e 30 80
e 30 84
e 30 90
e 30 93
e 30 98
e 30 100
e 30 103
e 30 108
e 30 113
e 30 118
e 30 119
e 30 137
e 30 140
e 30 142
e 30 148
e 30 151
e 30 153
e 30 154
e 31 34
e 31 37
e 31 38
e 31 41
e 31 45
e 31 46
e 31 49
e 31 55
e 31 60
e 31 61
e 31 65
e 31 66
e 31 69
e 31 77
e 31 84
e 31 86
e 31 89
e 31 90
e 31 94
e 31 97
e 31 98
e 31 105
e 31 111
e 31 113
e 31 120
e 31 126
e 31 132
e 31 137
e 31 160
e 32 38
e 32 42
e 32 52
e 32 62
e 32 63
e 32 81
e 32 85
e 32 103
e 32 104
e 32 110
e 32 111
e 32 116
e 32 117
e 32 127
e 32 132
e 32 134
e 32 136
e 32 140
e 32 151
e 32 154
e 33 34
e 33 35
e 33 37
e 33 38
e 33 40
e 33 47
e 33 68
e 33 70
e 33 79
e 33 93
e 33 94
e 33 105
e 33 112
e 33 126
e 33 134
e 33 135
e 33 139
e 33 142
e 33 143
e 33 146
e 33 147
e 34 58
e 34 59
e 34 61
e 34 64
e 34 67
e 34 74
e 34 75
e 34 77
e 34 83
e 34 86
e 34 100
e 34 101
e 34 105
e 34 108
e 34 109
e 34 114
e 34 137
e 34 158
e 35 36
e 35 40
e 35 46
e 35 48
e 35 51
e 35 54
e 35 59
e 35 62
e 35 64
e 35 69
e 35 70
e 35 73
e 35 84
e 35 85
e 35 88
e 35 99
e 35 110
e 35 111
e 35 117
e 35 131
e 35 136
e 35 139
e 36 39
e 36 42
e 36 47
e 36 49
e 36 57
e 36 60
e 36 61
e 36 64
e 36 65
e 36 69
e 36 75
e 36 85
e 36 110
e 36 116
e 36 118
e 36 130
e 36 138
e 36 148
e 37 39
e 37 43
e 37 45
e 37 54
e 37 57
e 37 64
e 37 66
e 37 73
e 37 83
e 37 87
e 37 89
e 37 90
e 37 94
e 37 98
e 37 106
e 37 107
e 37 127
e 37 150
e 38 43
e 38 48
e 38 49
e 38 56
e 38 67
e 38 90
e 38 91
e 38 99
e 38 102
e 38 104
e 38 110
e 38 115
e 38 117
e 38 120
e 38 122
e 38 123
e 38 127
e 38 137
e 38 139
e 38 142
e 38 144
e 38 154
e 38 155
e 38 157
e 39 43
e 39 45
e 39 52
e 39 59
e 39 60
e 39 61
e 39 63
e 39 74
e 39 75
e 39 78
e 39 85
e 39 89
e 39 91
e 39 94
e 39 103
e 39 105
e 39 109
e 39 116
e 39 119
e 39 121
e 39 122
e 39 124
e 39 133
e 39 137
e 39 138
e 39 145
e 39 149
e 39 160
e 40 48
e 40 52
e 40 53
e 40 58
e 40 64
e 40 76
e 40 81
e 40 105
e 40 107
e 40 123
e 40 128
e 40 146
e 40 153
e 40 154
e 40 155
e 40 158
e 41 50
e 41 62
e 41 67
e 41 70
e 41 77
e 41 83
e 41 92
e 41 93
e 41 94
e 41 100
e 41 111
e 41 113
e 41 117
e 41 129
e 41 131
e 41 132
e 41 135
e 41 141
e 41 154
e 41 156
e 42 44
e 42 47
e 42 48
e 42 50
e 42 57
e 42 58
e 42 59
e 42 79
e 42 81
e 42 82
e 42 88
e 42 90
e 42 96
e 42 108
e 42 109
e 42 114
e 42 118
e 42 122
e 42 126
e 42 127
e 42 144
e 42 151
e 42 152
e 42 155
e 42 159
e 43 46
e 43 65
e 43 66
e 43 68
e 43 70
e 43 73
e 43 74
e 43 77
e 43 82
e 43 86
e 43 89
e 43 92
e 43 95
e 43 106
e 43 112
e 43 116
e 43 131
e 43 136
e 43 139
e 43 144
e 43 145
e 43 146
e 44 48
e 44 51
e 44 54
e 44 59
e 44 65
e 44 75
e 44 82
e 44 85
e 44 86
e 44 92
e 44 100
e 44 101
e 44 105
e 44 109
e 44 116
e 44 119
e 44 122
e 44 123
e 44 131
e 44 141
e 44 142
e 44 146
e 44 155
e 44 156
e 44 159
e 44 160
e 45 46
e 45 56
e 45 57
e 45 61
e 45 76
e 45 86
e 45 104
e 45 108
e 45 119
e 45 120
e 45 123
e 45 134
e 45 135
e 45 139
e 45 143
e 45 144
e 45 146
e 45 158
e 46 47
e 46 48
e 46 49
e 46 63
e 46 65
e 46 66
e 46 67
e 46 68
e 46 88
e 46 91
e 46 92
e 46 100
e 46 102
e 46 104
e 46 113
e 46 120
e 46 122
e 46 125
e 46 126
e 46 128
e 46 140
e 46 143
e 46 147
e 46 148
e 47 49
e 47 58
e 47 59
e 47 65
e 47 76
e 47 82
e 47 83
e 47 85
e 47 87
e 47 88
e 47 89
e 47 91
e 47 95
e 47 102
e 47 110
e 47 114
e 47 117
e 47 118
e 47 119
e 47 123
e 47 126
e 47 130
e 47 131
e 47 135
e 47 144
e 47 146
e 47 148
e 48 51
e 48 54
e 48 59
e 48 61
e 48 70
e 48 75
e 48 81
e 48 97
e 48 102
e 48 109
e 48 111
e 48 113
e 48 122
e 48 125
e 48 136
e 48 143
e 48 149
e 48 153
e 48 155
e 48 158
e 48 160
e 49 51
e 49 54
e 49 55
e 49 56
e 49 57
e 49 64
e 49 68
e 49 73
e 49 82
e 49 84
e 49 90
e 49 97
e 49 99
e 49 103
e 49 106
e 49 124
e 49 125
e 49 134
e 49 140
e 49 146
e 49 151
e 49 157
e 50 52
e 50 58
e 50 70
e 50 71
e 50 73
e 50 74
e 50 81
e 50 90
e 50 100
e 50 101
e 50 105
e 50 111
e 50 114
e 50 116
e 50 117
e 50 120
e 50 124
e 50 125
e 50 130
e 50 135
e 50 140
e 50 141
e 50 147
e 50 149
e 50 151
e 50 156
e 50 158
e 51 53
e 51 55
e 51 64
e 51 71
e 51 72
e 51 74
e 51 76
e 51 81
e 51 82
e 51 86
e 51 89
e 51 100
e 51 101
e 51 105
e 51 114
e 51 119
e 51 123
e 51 127
e 51 129
e 51 135
e 51 138
e 51 144
e 51 147
e 51 148
e 51 152
e 51 156
e 51 157
e 52 62
e 52 65
e 52 67
e 52 75
e 52 86
e 52 104
e 52 105
e 52 110
e 52 118
e 52 122
e 52 124
e 52 128
e 52 129
e 52 140
e 52 143
e 52 145
e 52 151
e 53 55
e 53 60
e 53 61
e 53 62
e 53 63
e 53 64
e 53 67
e 53 78
e 53 83
e 53 87
e 53 93
e 53 95
e 53 109
e 53 110
e 53 112
e 53 113
e 53 114
e 53 124
e 53 132
e 53 138
e 53 154
e 54 59
e 54 67
e 54 73
e 54 75
e 54 78
e 54 81
e 54 88
e 54 92
e 54 99
e 54 100
e 54 106
e 54 109
e 54 111
e 54 116
e 54 121
e 54 128
e 54 129
e 54 132
e 54 133
e 54 160
e 55 59
e 55 60
e 55 65
e 55 67
e 55 68
e 55 69
e 55 70
e 55 85
e 55 86
e 55 90
e 55 92
e 55 93
e 55 112
e 55 120
e 55 121
e 55 132
e 55 135
e 55 136
e 55 142
e 55 143
e 55 146
e 55 152
e 55 159
e 56 57
e 56 59
e 56 64
e 56 83
e 56 89
e 56 104
e 56 105
e 56 108
e 56 113
e 56 119
e 56 120
e 56 124
e 56 126
e 56 128
e 56 139
e 56 150
e 56 152
e 56 153
e 57 59
e 57 62
e 57 78
e 57 80
e 57 82
e 57 83
e 57 84
e 57 85
e 57 86
e 57 97
e 57 107
e 57 111
e 57 125
e 57 135
e 57 144
e 57 152
e 58 63
e 58 66
e 58 75
e 58 79
e 58 89
e 58 91
e 58 93
e 58 94
e 58 96
e 58 97
e 58 101
e 58 103
e 58 105
e 58 122
e 58 123
e 58 126
e 58 129
e 58 133
e 58 136
e 58 141
e 58 149
e 58 151
e 58 157
e 58 159
e 59 60
e 59 63
e 59 64
e 59 65
e 59 66
e 59 69
e 59 73
e 59 76
e 59 81
e 59 86
e 59 88
e 59 100
e 59 104
e 59 108
e 59 109
e 59 111
e 59 112
e 59 115
e 59 120
e 59 126
e 59 129
e 59 133
e 59 142
e 59 151
e 59 152
e 59 153
e 59 157
e 59 160
e 60 66
e 60 67
e 60 68
e 60 79
e 60 88
e 60 89
e 60 90
e 60 94
e 60 96
e 60 104
e 60 105
e 60 110
e 60 119
e 60 132
e 60 135
e 60 138
e 60 157
e 61 67
e 61 69
e 61 71
e 61 72
e 61 78
e 61 86
e 61 87
e 61 90
e 61 93
e 61 94
e 61 98
e 61 103
e 61 108
e 61 114
e 61 121
e 61 124
e 61 125
e 61 130
e 61 134
e 61 136
e 61 137
e 61 141
e 61 145
e 61 152
e 61 157
e 62 63
e 62 64
e 62 68
e 62 73
e 62 74
e 62 76
e 62 79
e 62 85
e 62 90
e 62 95
e 62 97
e 62 102
e 62 113
e 62 118
e 62 124
e 62 125
e 62 128
e 62 132
e 62 133
e 62 138
e 62 139
e 62 143
e 62 153
e 62 154
e 62 157
e 62 159
e 63 64
e 63 67
e 63 70
e 63 82
e 63 89
e 63 94
e 63 96
e 63 100
e 63 104
e 63 105
e 63 106
e 63 114
e 63 118
e 63 121
e 63 122
e 63 125
e 63 127
e 63 140
e 63 152
e 63 160
e 64 67
e 64 74
e 64 90
e 64 94
e 64 105
e 64 108
e 64 114
e 64 116
e 64 118
e 64 128
e 64 129
e 64 136
e 64 137
e 64 140
e 64 145
e 64 149
e 65 93
e 65 102
e 65 106
e 65 107
e 65 108
e 65 109
e 65 110
e 65 111
e 65 114
e 65 130
e 65 134
e 65 144
e 65 153
e 65 160
e 66 67
e 66 68
e 66 74
e 66 81
e 66 91
e 66 93
e 66 94
e 66 95
e 66 113
e 66 115
e 66 116
e 66 123
e 66 125
e 66 126
e 66 138
e 66 143
e 66 145
e 66 146
e 66 147
e 66 150
e 66 151
e 67 69
e 67 72
e 67 75
e 67 77
e 67 79
e 67 83
e 67 84
e 67 86
e 67 97
e 67 99
e 67 106
e 67 112
e 67 115
e 67 118
e 67 129
e 67 132
e 67 137
e 67 139
e 67 143
e 67 151
e 67 155
e 67 156
e 67 159
e 68 72
e 68 75
e 68 76
e 68 78
e 68 79
e 68 92
e 68 95
e 68 97
e 68 98
e 68 106
e 68 108
e 68 110
e 68 120
e 68 127
e 68 136
e 68 140
e 68 142
e 68 145
e 68 146
e 68 151
e 68 155
e 68 160
e 69 71
e 69 88
e 69 114
e 69 135
e 69 137
e 69 140
e 69 142
e 69 146
e 69 150
e 69 158
e 69 160
e 70 77
e 70 88
e 70 96
e 70 99
e 70 102
e 70 109
e 70 116
e 70 118
e 70 119
e 70 120
e 70 124
e 70 128
e 70 131
e 70 138
e 70 150
e 70 152
e 71 73
e 71 78
e 71 81
e 71 88
e 71 92
e 71 93
e 71 101
e 71 104
e 71 105
e 71 109
e 71 119
e 71 120
e 71 124
e 71 129
e 71 131
e 71 136
e 71 138
e 71 141
e 71 143
e 71 145
e 71 152
e 71 155
e 72 75
e 72 78
e 72 79
e 72 82
e 72 84
e 72 88
e 72 97
e 72 101
e 72 116
e 72 120
e 72 136
e 72 140
e 72 141
e 72 145
e 72 149
e 72 152
e 72 154
e 72 155
e 72 157
e 73 75
e 73 85
e 73 87
e 73 95
e 73 100
e 73 103
e 73 104
e 73 105
e 73 109
e 73 113
e 73 115
e 73 116
e 73 117
e 73 120
e 73 124
e 73 127
e 73 128
e 73 130
e 73 131
e 73 134
e 73 136
e 73 146
e 73 148
e 73 150
e 73 160
e 74 76
e 74 83
e 74 84
e 74 85
e 74 91
e 74 107
e 74 113
e 74 116
e 74 120
e 74 121
e 74 122
e 74 132
e 74 144
e 74 146
e 74 147
e 74 150
e 74 153
e 75 80
e 75 89
e 75 97
e 75 106
e 75 115
e 75 124
e 75 126
e 75 130
e 75 131
e 75 136
e 75 137
e 75 146
e 75 147
e 75 153
e 75 160
e 76 77
e 76 85
e 76 90
e 76 93
e 76 95
e 76 96
e 76 104
e 76 105
e 76 114
e 76 119
e 76 120
e 76 133
e 76 136
e 76 141
e 76 144
e 77 78
e 77 83
e 77 86
e 77 93
e 77 100
e 77 102
e 77 105
e 77 115
e 77 130
e 77 132
e 77 150
e 77 156
e 77 158
e 78 83
e 78 90
e 78 95
e 78 96
e 78 100
e 78 102
e 78 104
e 78 105
e 78 107
e 78 109
e 78 115
e 78 116
e 78 118
e 78 119
e 78 127
e 78 132
e 78 143
e 78 146
e 78 151
e 79 86
e 79 87
e 79 94
e 79 98
e 79 99
e 79 101
e 79 103
e 79 108
e 79 110
e 79 111
e 79 117
e 79 118
e 79 124
e 79 125
e 79 148
e 79 151
e 79 152
e 79 153
e 79 155
e 79 157
e 79 159
e 80 82
e 80 88
e 80 92
e 80 100
e 80 110
e 80 112
e 80 114
e 80 118
e 80 124
e 80 136
e 80 138
e 80 147
e 80 155
e 80 158
e 80 160
e 81 94
e 81 114
e 81 125
e 81 131
e 81 136
e 81 140
e 81 145
e 81 149
e 81 150
e 81 152
e 81 156
e 82 92
e 82 96
e 82 99
e 82 103
e 82 105
e 82 106
e 82 111
e 82 113
e 82 115
e 82 117
e 82 121
e 82 122
e 82 127
e 82 128
e 82 129
e 82 141
e 82 145
e 82 148
e 82 150
e 82 151
e 82 153
e 82 158
e 82 159
e 83 88
e 83 92
e 83 93
e 83 100
e 83 101
e 83 106
e 83 111
e 83 115
e 83 118
e 83 122
e 83 126
e 83 128
e 83 158
e 84 86
e 84 87
e 84 91
e 84 96
e 84 103
e 84 104
e 84 107
e 84 111
e 84 114
e 84 118
e 84 120
e 84 126
e 84 131
e 84 133
e 84 142
e 84 144
e 84 150
e 84 156
e 85 101
e 85 108
e 85 109
e 85 111
e 85 117
e 85 122
e 85 129
e 85 134
e 85 135
e 85 148
e 85 149
e 85 151
e 85 158
e 86 90
e 86 95
e 86 101
e 86 103
e 86 108
e 86 111
e 86 114
e 86 115
e 86 116
e 86 134
e 86 140
e 86 148
e 86 156
e 87 91
e 87 96
e 87 97
e 87 99
e 87 102
e 87 106
e 87 116
e 87 118
e 87 119
e 87 127
e 87 129
e 87 131
e 87 133
e 87 136
e 87 138
e 87 141
e 87 142
e 87 146
e 87 148
e 87 155
e 87 157
e 87 160
e 88 94
e 88 111
e 88 114
e 88 118
e 88 121
e 88 123
e 88 125
e 88 131
e 88 136
e 88 140
e 88 146
e 88 152
e 88 156
e 89 93
e 89 98
e 89 99
e 89 106
e 89 108
e 89 110
e 89 113
e 89 118
e 89 127
e 89 129
e 89 130
e 89 132
e 89 136
e 89 140
e 89 144
e 89 146
e 89 149
e 89 150
e 90 92
e 90 93
e 90 96
e 90 98
e 90 104
e 90 105
e 90 121
e 90 124
e 90 126
e 90 132
e 90 146
e 91 93
e 91 96
e 91 115
e 91 116
e 91 117
e 91 122
e 91 132
e 91 133
e 91 136
e 91 137
e 91 138
e 91 146
e 91 149
e 91 153
e 91 160
e 92 97
e 92 99
e 92 101
e 92 103
e 92 104
e 92 108
e 92 115
e 92 133
e 92 137
e 92 139
e 92 141
e 92 149
e 92 152
e 92 158
e 93 96
e 93 97
e 93 98
e 93 99
e 93 103
e 93 107
e 93 109
e 93 120
e 93 123
e 93 125
e 93 127
e 93 128
e 93 130
e 93 134
e 93 139
e 93 145
e 93 146
e 93 150
e 94 100
e 94 101
e 94 108
e 94 113
e 94 114
e 94 122
e 94 124
e 94 128
e 94 137
e 94 139
e 94 140
e 94 145
e 94 146
e 94 154
e 95 111
e 95 124
e 95 125
e 95 126
e 95 131
e 95 132
e 95 135
e 95 136
e 95 139
e 95 144
e 95 149
e 95 151
e 95 154
e 95 160
e 96 101
e 96 106
e 96 114
e 96 118
e 96 129
e 96 133
e 96 135
e 96 142
e 96 143
e 96 153
e 96 158
e 96 159
e 97 99
e 97 100
e 97 101
e 97 110
e 97 112
e 97 123
e 97 130
e 97 134
e 97 135
e 97 138
e 97 140
e 97 144
e 97 146
e 97 148
e 97 155
e 98 101
e 98 104
e 98 114
e 98 126
e 98 127
e 98 130
e 98 134
e 98 139
e 98 148
e 98 154
e 99 114
e 99 115
e 99 116
e 99 120
e 99 122
e 99 138
e 99 139
e 99 145
e 99 148
e 99 150
e 99 159
e 100 103
e 100 105
e 100 112
e 100 114
e 100 116
e 100 117
e 100 119
e 100 124
e 100 127
e 100 129
e 100 136
e 100 138
e 100 150
e 100 157
e 101 102
e 101 108
e 101 109
e 101 117
e 101 120
e 101 127
e 101 129
e 101 130
e 101 134
e 101 140
e 101 141
e 101 151
e 101 156
e 102 105
e 102 107
e 102 108
e 102 120
e 102 127
e 102 137
e 102 153
e 102 159
e 102 160
e 103 105
e 103 106
e 103 115
e 103 116
e 103 119
e 103 121
e 103 133
e 103 136
e 103 140
e 103 143
e 103 156
e 104 110
e 104 114
e 104 118
e 104 119
e 104 131
e 104 135
e 104 152
e 104 155
e 104 156
e 105 108
e 105 111
e 105 115
e 105 119
e 105 120
e 105 130
e 105 131
e 105 132
e 105 137
e 105 147
e 105 151
e 106 109
e 106 120
e 106 121
e 106 122
e 106 128
e 106 130
e 106 131
e 106 138
e 106 141
e 106 146
e 106 157
e 106 159
e 107 113
e 107 123
e 107 128
e 107 136
e 107 149
e 107 154
e 108 119
e 108 131
e 108 135
e 108 137
e 108 142
e 108 146
e 108 147
e 109 120
e 109 125
e 109 126
e 109 136
e 109 146
e 109 148
e 109 155
e 110 114
e 110 120
e 110 125
e 110 132
e 110 134
e 110 137
e 110 139
e 110 140
e 110 145
e 110 150
e 110 156
e 110 157
e 110 158
e 110 160
e 111 127
e 111 129
e 111 131
e 111 136
e 111 140
e 111 147
e 111 149
e 111 156
e 112 116
e 112 122
e 112 133
e 112 136
e 112 139
e 112 141
e 112 146
e 113 115
e 113 116
e 113 120
e 113 124
e 113 126
e 113 140
e 113 155
e 113 158
e 113 159
e 114 115
e 114 123
e 114 128
e 114 130
e 114 139
e 114 140
e 114 154
e 114 160
e 115 120
e 115 125
e 115 129
e 115 130
e 115 131
e 115 132
e 115 134
e 115 136
e 115 139
e 115 146
e 115 150
e 115 153
e 115 156
e 116 119
e 116 121
e 116 124
e 116 125
e 116 129
e 116 144
e 116 157
e 116 158
e 117 125
e 117 134
e 117 146
e 117 152
e 118 119
e 118 126
e 118 127
e 118 145
e 118 146
e 118 147
e 118 151
e 118 152
e 118 153
e 119 122
e 119 126
e 119 127
e 119 130
e 119 132
e 119 137
e 119 150
e 119 151
e 119 156
e 119 159
e 120 122
e 120 128
e 120 136
e 120 137
e 120 142
e 120 147
e 120 160
e 121 125
e 121 131
e 121 135
e 121 139
e 121 140
e 121 145
e 121 151
e 121 160
e 122 127
e 122 128
e 122 131
e 122 139
e 122 144
e 122 146
e 122 150
e 122 153
e 122 158
e 123 125
e 123 134
e 123 135
e 123 138
e 123 141
e 123 144
e 123 151
e 123 153
e 123 158
e 124 125
e 124 127
e 124 131
e 124 136
e 124 143
e 124 144
e 125 126
e 125 128
e 125 135
e 125 138
e 125 140
e 125 141
e 125 143
e 125 144
e 125 147
e 125 160
e 126 127
e 126 129
e 126 142
e 126 147
e 126 151
e 126 152
e 127 129
e 127 131
e 127 132
e 127 138
e 127 139
e 127 149
e 127 154
e 127 158
e 128 136
e 128 138
e 128 140
e 128 143
e 128 151
e 128 152
e 128 157
e 129 133
e 129 139
e 129 144
e 129 154
e 130 132
e 130 135
e 130 137
e 130 146
e 130 147
e 130 148
e 130 153
e 131 139
e 131 141
e 131 144
e 131 153
e 131 155
e 131 159
e 132 133
e 132 136
e 132 139
e 132 144
e 132 153
e 132 156
e 133 134
e 133 136
e 133 145
e 133 149
e 134 136
e 134 153
e 135 148
e 136 143
e 136 144
e 136 145
e 136 146
e 136 148
e 136 154
e 136 158
e 136 159
e 137 152
e 137 158
e 138 143
e 138 154
e 139 140
e 139 144
e 139 148
e 139 152
e 139 153
e 139 157
e 140 147
e 140 148
e 140 152
e 140 157
e 140 158
e 141 144
e 141 146
e 141 152
e 141 159
e 142 146
e 142 148
e 142 149
e 142 154
e 143 145
e 143 151
e 143 152
e 143 156
e 143 158
e 144 147
e 144 154
e 145 147
e 145 150
e 145 158
e 145 160
e 146 150
e 146 151
e 146 160
e 148 155
e 149 154
e 150 151
e 150 154
e 151 153
e 154 156
e 154 160
e 155 159
e 155 160
e 156 157
e 156 160
e 158 159
